%chk=ChlorineQ1.chk
# B3LYP/6-31G* geom=connectivity opt freq

Title Card Required

0 2
 Cl                 1.13333332   -2.46666663    0.00000000

 1

