%chk=DClQ1.chk
# B3LYP/6-31G* geom=connectivity opt freq

Title Card Required

0 1
 Cl                 4.28999997   -3.97777772    0.00000000
 H(iso=2)                  2.99999997   -3.97777772    0.00000000

 1 2 1.0
 2

