%chk=HClQ1.chk
# B3LYP/6-31G* geom=connectivity opt freq

Title Card Required

0 1
 Cl                -3.39888885   -4.95555548    0.00000000
 H                 -4.68888885   -4.95555548    0.00000000

 1 2 1.0
 2

