%chk=HydrogenQ1.chk
# B3LYP/6-31G* geom=connectivity opt freq

Title Card Required

0 2
 H                 -3.17777775   -3.93333327    0.00000000

 1

