%chk=testbug.chk
# hf/3-21g geom=connectivity

Title Card Required

0 1
 Cl                -2.59999998    1.26666665    0.00000000
 H                 -3.88999998    1.26666665    0.00000000

 1 2 1.0
 2

