%chk=TSCHCL.chk
# b3lyp/6-31g* geom=connectivity opt(calcfc,ts) freq

Title Card Required

0 2
 C                  0.53806623    2.65625270    0.02778914
 H(Iso=2)           0.62767143    3.27352822   -0.84160250
 H                 -0.65817609    2.00971660    0.00338835
 Cl                 1.84293499    1.47532447    0.04584512
 Cl                 0.63388824    3.65854244    1.47133803
 Cl                -1.97756099    1.29662532   -0.02352428

 1 2 1.0 3 1.0 4 1.0 5 1.0
 2
 3
 4
 5
 6

